387,257
769,420
799,424
749,539
838,891
630,81
630,731
559,646
307,596
766,433
1062,787
765,322
622,415
436,-75
814,474
225,554
575,512
764,662
910,721
817,673
885,6
291,406
716,454
975,257
624,424
1069,124
1108,189
